NAME : portcgen-20-24
COMMENT : portcgen N=20, seed=24
TYPE : TSP
DIMENSION : 20
EDGE_WEIGHT_TYPE : EUC_2D
NODE_COORD_SECTION
1 -207546 269202
2 270169 109852
3 -179200 52086
4 719653 -50469
5 -71563 65508
6 -78641 268291
7 26713 153190
8 151628 -61475
9 83407 248784
10 26240 252420
11 -127189 -429547
12 179794 -335153
13 -165726 -115332
14 183203 261544
15 -206499 -11093
16 -14166 114556
17 41582 323638
18 96689 -483719
19 299883 -17048
20 -35805 -9577
